(set-option :produce-models true)
(set-logic QF_UF)
(declare-fun p42() Bool)
(declare-fun p26() Bool)
(declare-fun p25() Bool)
(declare-fun p41() Bool)
(declare-fun p73() Bool)
(declare-fun p82() Bool)
(declare-fun p54() Bool)
(declare-fun p74() Bool)
(declare-fun p5() Bool)
(declare-fun p53() Bool)
(declare-fun p70() Bool)
(declare-fun p51() Bool)
(declare-fun p66() Bool)
(declare-fun p58() Bool)
(declare-fun p49() Bool)
(declare-fun p67() Bool)
(declare-fun p2() Bool)
(declare-fun p33() Bool)
(declare-fun p83() Bool)
(declare-fun p80() Bool)
(declare-fun p86() Bool)
(declare-fun p4() Bool)
(declare-fun p23() Bool)
(declare-fun p88() Bool)
(declare-fun p37() Bool)
(declare-fun p11() Bool)
(declare-fun p39() Bool)
(declare-fun p9() Bool)
(declare-fun p8() Bool)
(declare-fun p69() Bool)
(declare-fun p79() Bool)
(declare-fun p75() Bool)
(declare-fun p44() Bool)
(declare-fun p59() Bool)
(declare-fun p61() Bool)
(declare-fun p68() Bool)
(declare-fun p15() Bool)
(declare-fun p6() Bool)
(declare-fun p14() Bool)
(declare-fun p31() Bool)
(declare-fun p55() Bool)
(declare-fun p65() Bool)
(declare-fun p28() Bool)
(declare-fun p22() Bool)
(declare-fun p89() Bool)
(declare-fun p81() Bool)
(declare-fun p32() Bool)
(declare-fun p84() Bool)
(declare-fun p56() Bool)
(declare-fun p3() Bool)
(declare-fun p64() Bool)
(declare-fun p43() Bool)
(declare-fun p24() Bool)
(declare-fun p87() Bool)
(declare-fun p47() Bool)
(declare-fun p60() Bool)
(declare-fun p76() Bool)
(declare-fun p63() Bool)
(declare-fun p0() Bool)
(declare-fun p52() Bool)
(declare-fun p1() Bool)
(declare-fun p19() Bool)
(declare-fun p34() Bool)
(declare-fun p20() Bool)
(declare-fun p13() Bool)
(declare-fun p12() Bool)
(declare-fun p46() Bool)
(declare-fun p29() Bool)
(declare-fun p18() Bool)
(declare-fun p30() Bool)
(declare-fun p72() Bool)
(declare-fun p27() Bool)
(declare-fun p38() Bool)
(declare-fun p10() Bool)
(declare-fun p78() Bool)
(declare-fun p77() Bool)
(declare-fun p16() Bool)
(declare-fun p45() Bool)
(declare-fun p71() Bool)
(declare-fun p36() Bool)
(declare-fun p35() Bool)
(declare-fun p21() Bool)
(declare-fun p40() Bool)
(declare-fun p57() Bool)
(declare-fun p17() Bool)
(declare-fun p7() Bool)
(declare-fun p85() Bool)
(declare-fun p50() Bool)
(declare-fun p48() Bool)
(declare-fun p62() Bool)
(assert
(and (or p42 (not p26) (not p25)) (or p41 (not p73) (not p82)) (or (not p54) p74 p5) (or (not p53) p70 p41) (or p51 (not p51) p66) (or p41 p58 p49) (or p67 p2 p33) (or p67 (not p83) p73) (or (not p80) (not p86) (not p4)) (or p23 p82 p88) (or p37 (not p11) (not p39)) (or p9 (not p8) p26) (or p82 p4 p82) (or p69 (not p79) (not p75)) (or p44 (not p59) (not p86)) (or (not p26) (not p61) (not p68)) (or (not p15) p73 (not p2)) (or (not p42) (not p61) p6) (or p14 p59 (not p15)) (or (not p6) p75 p80) (or (not p79) (not p44) (not p31)) (or p51 (not p55) (not p49)) (or p65 (not p73) (not p28)) (or p22 p89 (not p8)) (or (not p81) p68 (not p79)) (or (not p32) (not p83) (not p49)) (or p84 p83 (not p56)) (or (not p8) (not p74) p3) (or p79 p56 (not p2)) (or p64 (not p61) (not p43)) (or p75 (not p24) (not p56)) (or (not p3) (not p87) p47) (or (not p60) (not p47) (not p76)) (or p28 (not p6) (not p88)) (or (not p63) p33 p26) (or (not p14) (not p4) (not p58)) (or p89 p81 p87) (or p0 (not p52) p84) (or (not p56) p1 p55) (or p19 (not p51) p34) (or (not p20) (not p13) p12) (or p22 p46 p33) (or p58 (not p29) p18) (or p12 p76 p42) (or p30 (not p72) p27) (or p19 (not p31) (not p26)) (or (not p22) (not p84) (not p74)) (or (not p8) (not p4) p38) (or p10 p84 (not p83)) (or (not p55) p72 (not p47)) (or p8 (not p51) p49) (or (not p18) (not p20) p51) (or p76 p26 p78) (or p65 p53 (not p9)) (or (not p13) p77 (not p43)) (or (not p72) p16 (not p64)) (or (not p45) (not p18) p4) (or (not p83) (not p22) (not p52)) (or p63 (not p33) (not p29)) (or p46 (not p55) p54) (or (not p0) p74 (not p42)) (or (not p61) (not p73) p86) (or p61 (not p1) p49) (or (not p71) p5 p36) (or (not p15) p8 (not p35)) (or (not p5) (not p61) (not p46)) (or p63 (not p64) p24) (or p58 p14 (not p13)) (or (not p38) p16 (not p66)) (or (not p29) p0 p31) (or (not p0) (not p26) p21) (or p54 (not p25) p34) (or p54 (not p84) (not p81)) (or (not p84) p56 p30) (or (not p16) (not p31) (not p29)) (or p22 (not p6) p56) (or (not p59) (not p4) p33) (or (not p36) (not p80) p18) (or (not p43) (not p53) p40) (or (not p20) p60 (not p68)) (or (not p25) p43 (not p14)) (or p88 (not p10) p14) (or (not p21) (not p40) p10) (or (not p10) p27 (not p21)) (or (not p35) (not p57) (not p17)) (or p7 p38 (not p30)) (or p2 p12 p13) (or (not p64) (not p67) p83) (or p30 p77 (not p21)) (or p84 (not p71) p37) (or p8 (not p69) (not p67)) (or (not p86) (not p55) p37) (or p11 (not p39) (not p19)) (or (not p56) p61 (not p18)) (or (not p73) (not p46) (not p26)) (or p58 p85 (not p24)) (or (not p39) (not p28) (not p24)) (or p78 p80 (not p35)) (or p44 p21 p34) (or (not p50) (not p25) p24) (or p24 p84 (not p74)) (or (not p59) p30 p54) (or p10 p11 (not p47)) (or (not p17) p63 p81) (or p29 (not p57) p33) (or (not p49) p11 (not p60)) (or (not p49) p2 p31) (or (not p17) (not p30) p52) (or p88 (not p6) p5) (or (not p84) (not p6) p72) (or p58 p51 p85) (or (not p66) p70 (not p3)) (or p61 (not p28) (not p79)) (or (not p72) p8 p40) (or p27 (not p30) (not p28)) (or (not p22) (not p81) (not p55)) (or p14 (not p15) p30) (or (not p6) p38 p38) (or p7 p19 p12) (or (not p55) (not p21) (not p5)) (or p22 (not p32) (not p57)) (or p31 (not p42) (not p34)) (or p33 p50 p45) (or (not p84) p72 (not p74)) (or p26 p55 p30) (or p81 (not p53) p73) (or p24 p30 (not p33)) (or (not p20) (not p28) p33) (or (not p10) (not p40) (not p8)) (or p35 p4 p17) (or (not p54) p7 (not p52)) (or (not p59) (not p46) p48) (or p53 (not p9) p10) (or (not p40) p37 (not p47)) (or p77 p35 (not p16)) (or (not p77) p28 p52) (or p67 p7 p62) (or (not p87) p14 (not p29)) (or p70 (not p60) (not p89)) (or p57 p15 (not p66)) (or p12 p34 p75) (or (not p55) (not p33) (not p34)) (or (not p75) p36 p89) (or (not p88) p80 (not p87)) (or p65 p2 p37) (or p34 (not p55) (not p37)) (or p2 p42 p58) (or (not p24) (not p3) (not p16)) (or (not p24) p20 (not p49)) (or (not p67) (not p69) p48) (or p66 (not p50) (not p49)) (or (not p49) (not p3) (not p45)) (or (not p39) p0 (not p88)) (or p35 (not p19) p10) (or (not p10) p64 p88) (or p62 (not p40) (not p44)) (or (not p17) p48 p84) (or (not p77) (not p7) (not p30)) (or p56 p77 p6) (or (not p26) (not p36) (not p46)) (or (not p4) (not p47) p45) (or p44 (not p52) p77) (or (not p62) p31 (not p63)) (or (not p1) (not p32) (not p22)) (or p82 p89 (not p14)) (or p72 p25 p48) (or p51 (not p64) (not p56)) (or p10 (not p7) p85) (or p61 (not p48) p73) (or p38 p2 (not p79)) (or (not p76) p81 (not p55)) (or (not p5) (not p24) (not p6)) (or p8 p10 (not p73)) (or p23 p36 (not p21)) (or (not p57) (not p42) p36) (or (not p77) p82 (not p6)) (or p47 p88 p89) (or p32 p21 (not p26)) (or (not p6) (not p81) (not p2)) (or p47 p88 p4) (or (not p24) (not p76) (not p3)) (or p6 (not p47) p24) (or (not p61) p21 p12) (or (not p31) p57 p39) (or p84 p24 (not p44)) (or (not p49) (not p28) (not p14)) (or (not p26) (not p23) (not p24)) (or p31 p70 p69) (or (not p76) (not p24) (not p7)) (or p40 (not p80) p62) (or p45 (not p8) (not p25)) (or p3 p65 p53) (or p13 p86 p4) (or p86 (not p13) p50) (or (not p28) p33 (not p87)) (or (not p86) p49 (not p33)) (or p18 p70 p58) (or (not p5) (not p25) p23) (or (not p84) p6 p19) (or p81 p62 p4) (or (not p22) (not p73) p59) (or (not p39) (not p15) p20) (or (not p89) p83 (not p57)) (or p21 p58 (not p40)) (or (not p15) (not p1) p5) (or p33 (not p73) p22) (or p18 p22 (not p82)) (or p64 p78 (not p21)) (or (not p28) (not p31) (not p43)) (or p78 (not p51) p67) (or p15 (not p10) p60) (or (not p3) (not p19) (not p38)) (or p64 p59 p31) (or (not p45) p54 p22) (or (not p7) p84 (not p78)) (or p28 p47 p87) (or p70 (not p35) p60) (or (not p48) p3 p24) (or p81 p40 (not p26)) (or (not p66) p34 p34) (or p45 (not p6) p59) (or p19 p6 p85) (or (not p24) (not p66) (not p6)) (or p29 p5 (not p83)) (or (not p88) (not p19) p24) (or p50 (not p52) p53) (or p55 (not p59) (not p67)) (or (not p26) (not p14) p22) (or (not p75) (not p46) (not p89)) (or p5 (not p89) p19) (or (not p5) (not p70) (not p7)) (or p11 (not p31) (not p58)) (or p2 p7 p20) (or p30 (not p43) p89) (or (not p26) (not p81) (not p64)) (or (not p64) (not p60) p86) (or p54 p65 p9) (or p29 (not p22) (not p78)) (or (not p81) p33 p43) (or p16 (not p52) (not p60)) (or p36 p47 p53) (or p78 (not p82) (not p64)) (or (not p82) (not p57) p47) (or p71 (not p31) (not p80)) (or (not p20) p41 (not p53)) (or (not p42) p23 p65) (or (not p23) p62 (not p67)) (or p66 (not p78) (not p2)) (or (not p17) p63 p50) (or p71 p71 (not p33)) (or (not p24) p44 p52) (or p49 (not p43) p10) (or p11 p89 (not p51)) (or p19 (not p49) p9) (or p36 p8 p25) (or p3 (not p70) (not p50)) (or (not p16) p60 p11) (or (not p56) p23 (not p21)) (or p75 p56 (not p11)) (or (not p17) p84 (not p59)) (or (not p33) p7 p18) (or p4 p23 (not p46)) (or (not p18) (not p58) p17) (or (not p1) (not p25) p38) (or (not p63) p55 p26) (or (not p44) (not p29) (not p84)) (or (not p35) (not p38) p89) (or (not p70) p24 (not p88)) (or p86 p45 p13) (or (not p3) p79 p26) (or p86 (not p33) (not p61)) (or (not p80) p38 (not p15)) (or p76 p21 p66) (or p41 p72 (not p56)) (or p25 (not p54) (not p32)) (or (not p27) (not p0) p85) (or (not p22) p36 (not p38)) (or p70 p9 p80) (or (not p35) p18 p73) (or p13 p27 p22) (or p4 (not p88) p25) (or (not p49) p74 p7) (or (not p46) (not p1) (not p37)) (or (not p52) p60 (not p14)) (or (not p50) (not p23) p28) (or p29 (not p42) p46) (or p57 (not p85) (not p22)) (or (not p18) (not p42) (not p60)) (or p49 p12 p13) (or (not p4) p50 (not p72)) (or (not p48) p87 p10) (or p56 (not p28) (not p8)) (or (not p47) (not p41) (not p61)) (or (not p86) p80 p87) (or (not p24) p19 (not p11)) (or (not p71) p26 (not p7)) (or p16 p51 p86) (or (not p46) p80 p42) (or (not p30) (not p41) p79) (or p67 p45 p18) (or (not p71) (not p77) p10) (or (not p57) (not p39) p7) (or p36 p30 p8) (or (not p78) (not p20) p80) (or (not p61) (not p69) p12) (or (not p54) p62 (not p59)) (or (not p31) (not p86) (not p66)) (or (not p50) p41 (not p28)) (or (not p33) p64 (not p75)) (or (not p33) (not p21) (not p59)) (or p61 p30 (not p62)) (or p66 (not p78) (not p87)) (or p67 p27 (not p75)) (or p30 (not p22) (not p1)) (or p27 p80 p87) (or (not p23) (not p28) (not p9)) (or (not p28) (not p37) p4) (or p72 (not p53) (not p7)) (or (not p3) (not p20) p39) (or (not p21) p75 p72) (or p59 p87 (not p36)) (or p38 p32 p79) (or p37 (not p76) (not p26)) (or p85 p63 (not p40)) (or (not p51) (not p88) (not p78)) (or (not p50) (not p0) (not p27)) (or p56 p14 (not p58)) (or (not p33) (not p64) (not p28)) (or p40 p71 p85) (or p67 p19 (not p8)) (or (not p43) (not p42) (not p27)) (or (not p24) (not p71) p26) (or p0 (not p13) (not p83)) (or p78 p44 (not p12)) (or p77 p42 (not p6)) (or (not p51) p66 p83) (or p3 (not p68) (not p36)) (or p89 p77 (not p84)) (or (not p76) (not p62) p26) (or (not p35) p47 p26) (or p8 p19 (not p42)) (or p56 (not p19) (not p15)) (or (not p14) (not p18) (not p18)) (or (not p71) p68 p13) (or (not p2) p38 (not p76)) (or p33 (not p8) p86) (or p66 p32 (not p47)) (or p82 p14 (not p41)) (or p45 p59 p56) (or (not p80) p8 p5) (or (not p15) p82 p22) (or p40 (not p86) p86) (or p60 p57 (not p9)) (or (not p47) p62 p48) (or (not p8) p58 (not p86)) (or p42 (not p61) (not p38)) (or (not p44) p6 (not p42)) (or p0 p61 p27) (or p26 p83 (not p6)) (or (not p39) p11 (not p28)) (or (not p33) p14 (not p49)) (or p86 p49 p63) (or p50 (not p71) p55) (or (not p39) (not p88) (not p88)) (or (not p81) p74 (not p40)) (or p38 p10 (not p11)) (or (not p83) (not p20) p31) (or (not p50) p51 p77) (or p79 (not p31) (not p47)) (or (not p70) p18 p56) (or p73 (not p36) (not p58)) (or (not p85) (not p87) p36) (or (not p37) p3 (not p15)) (or (not p81) (not p79) (not p45)) (or p39 p57 p89) (or (not p76) (not p69) p13) (or p57 p17 p19) (or (not p43) p57 (not p37)) (or (not p54) (not p83) (not p49)) (or (not p12) p10 (not p57)) (or (not p52) (not p34) (not p69)) (or p46 (not p55) p30) (or (not p74) (not p74) (not p16)) (or (not p46) (not p73) p64) (or p16 p63 (not p48)) (or p14 p19 p1) (or (not p66) (not p21) (not p40)) (or p6 p55 (not p67)) (or (not p17) p44 p22) (or p16 p31 p68) (or (not p12) p72 p55) (or (not p48) (not p21) p14) (or p9 p27 (not p14)) (or (not p69) p62 (not p74)) (or (not p35) (not p86) (not p3)) (or p52 (not p40) (not p38)) (or p88 p12 p75) (or p29 (not p10) (not p35)) (or p71 (not p71) (not p32)) (or (not p19) (not p17) (not p19)) (or (not p9) p85 p78) (or p42 p79 p2) (or p28 p80 p85) (or p16 (not p24) (not p12)) (or p26 p25 p53) (or (not p46) p21 p74) (or p47 p50 p85) (or (not p5) (not p70) (not p83)) (or p28 (not p24) p53) (or p24 (not p81) (not p34)) (or p65 p57 p11) (or (not p38) (not p63) p75) (or (not p32) p16 (not p65)) (or p40 (not p47) p20) (or p89 (not p27) p61) (or (not p62) (not p8) (not p26)) (or p83 p3 (not p73)) (or p47 p8 p50) (or (not p86) p11 p45) (or p83 (not p54) p2) (or p53 p6 (not p2)) (or p14 p56 p26) (or p83 (not p41) p66) (or p48 p28 (not p70)) (or p37 p57 p61) (or (not p55) (not p59) (not p7)) (or (not p68) (not p89) p22) (or (not p15) p79 p38) (or (not p86) p50 (not p2)) (or p53 p32 p73) (or p83 p79 (not p48)) (or p64 (not p8) p26) (or p81 p71 p18) (or p45 p52 p5) (or (not p14) (not p89) p3) (or (not p12) (not p79) p74) (or p7 p13 p69) (or (not p84) (not p0) p67) (or p38 p81 p20) (or (not p66) (not p27) p23) (or p35 (not p20) p42) (or p44 p23 (not p24)) (or p85 (not p33) p20) (or p61 p10 (not p24)) (or (not p17) p0 p60) (or (not p66) p16 (not p77)) (or p82 (not p25) (not p40)) (or p82 (not p9) (not p57)))
)
(check-sat)
(get-model)
